
Log started (V11.0.0) Mon Apr 14 02:43:38 2008

Tried aggregator 1 time.
Reduced MIP has 530 rows, 15001 columns, and 30030 nonzeros.
Presolve time =    0.09 sec.
Clique table members: 500.
MIP emphasis: balance optimality and feasibility.
MIP search method: dynamic search.
Parallel mode: none, using 1 thread.
Root relaxation solution time =    0.47 sec.

        Nodes                                         Cuts/
   Node  Left     Objective  IInf  Best Integer     Best Node    ItCnt     Gap

*     0+    0                        24871.0000       67.0082      954   99.73%
*     0+    0                           78.0000       67.0082      954   14.09%
      0     0       68.0000    44       78.0000      Fract: 8      966   12.82%
*     0+    0                           76.0000       68.0000      966   10.53%
      0     0       68.0000    46       76.0000     Covers: 2      967   10.53%
*     0+    0                           75.0000       68.0000      967    9.33%
*     0+    0                           72.0000       68.0000      967    5.56%
*     0+    0                           71.0000       68.0000      967    4.23%

Repeating presolve.
Tried aggregator 1 time.
MIP Presolve eliminated 0 rows and 4531 columns.
Reduced MIP has 530 rows, 10470 columns, and 20968 nonzeros.
Tried aggregator 1 time.
Represolve time =    0.44 sec.
Clique table members: 795.
MIP emphasis: balance optimality and feasibility.
MIP search method: dynamic search.
Parallel mode: none, using 1 thread.
Root relaxation solution time =    0.34 sec.

        Nodes                                         Cuts/
   Node  Left     Objective  IInf  Best Integer     Best Node    ItCnt     Gap

      0     0       68.0000    62       71.0000       68.0000      908    4.23%
      0     2       68.0000    62       71.0000       68.0000      908    4.23%
    100    87       70.0000    49       71.0000       68.0000     6563    4.23%
    200   141       70.0000    48       71.0000       68.0000    18693    4.23%
    300   217       70.0000    54       71.0000       68.0000    28576    4.23%
    400   291       69.0000    32       71.0000       68.0000    36613    4.23%
    500   372       69.0000    34       71.0000       68.0000    43049    4.23%
*   504+  249                           70.0000       68.0000    44646    2.86%
    600   244       69.0000    50       70.0000       68.0000    54008    2.86%
*   604+  138                           69.0000       68.0000    54258    1.45%
    700   150       68.0000    55       69.0000       68.0000    61408    1.45%
    800   192       68.0000    60       69.0000       68.0000    70462    1.45%
    900   250       68.0000    43       69.0000       68.0000    85709    1.45%
   1000   298       68.0000    74       69.0000       68.0000   104665    1.45%
Elapsed time =  89.98 sec. (tree size =  3.36 MB, solutions = 8)
   1100   366       68.0000    90       69.0000       68.0000   121183    1.45%
   1200   434       68.0000    58       69.0000       68.0000   137906    1.45%
   1300   522       68.0000    72       69.0000       68.0000   149038    1.45%
   1400   592       68.0000    42       69.0000       68.0000   165476    1.45%
   1500   668       68.0000    82       69.0000       68.0000   181376    1.45%
   1600   748       68.0000    62       69.0000       68.0000   195082    1.45%
   1700   834       68.0000   106       69.0000       68.0000   207015    1.45%
   1800   910       68.0000    68       69.0000       68.0000   222751    1.45%
   1900   990       68.0000    69       69.0000       68.0000   237262    1.45%
   2000  1060       68.0000    75       69.0000       68.0000   255262    1.45%
Elapsed time = 206.14 sec. (tree size = 16.36 MB, solutions = 8)
   2100  1120       68.0000   115       69.0000       68.0000   276537    1.45%
   2200  1194       68.0000    59       69.0000       68.0000   295607    1.45%
   2300  1260       68.0000    62       69.0000       68.0000   316521    1.45%
   2400  1330       68.0000    82       69.0000       68.0000   338766    1.45%
   2500  1406       68.0000    75       69.0000       68.0000   359205    1.45%
   2600  1484       68.0000   107       69.0000       68.0000   381608    1.45%
   2700  1554    infeasible             69.0000       68.0000   403708    1.45%
   2800  1628       68.0000    89       69.0000       68.0000   424174    1.45%
   2900  1710       68.0000   102       69.0000       68.0000   442491    1.45%
*  2904+    1                           68.0000       68.0000   442948    0.00%

Cover cuts applied:  1297
Gomory fractional cuts applied:  4

Solution pool: 9 solutions saved.

MIP - Integer optimal solution:  Objective = 6.8000000000e+001
Solution time =  382.94 sec.  Iterations = 442948  Nodes = 2904


Incumbent solution
Variable Name           Solution Value
Cmax                         68.000000
X_1_8                         1.000000
X_2_9                         1.000000
X_3_16                        1.000000
X_4_2                         1.000000
X_5_18                        1.000000
X_6_6                         1.000000
X_7_10                        1.000000
X_8_4                         1.000000
X_9_17                        1.000000
X_10_7                        1.000000
X_11_12                       1.000000
X_12_4                        1.000000
X_13_30                       1.000000
X_14_21                       1.000000
X_15_21                       1.000000
X_16_20                       1.000000
X_17_3                        1.000000
X_18_12                       1.000000
X_19_2                        1.000000
X_20_30                       1.000000
X_21_1                        1.000000
X_22_28                       1.000000
X_23_19                       1.000000
X_24_2                        1.000000
X_25_1                        1.000000
X_26_25                       1.000000
X_27_9                        1.000000
X_28_9                        1.000000
X_29_29                       1.000000
X_30_2                        1.000000
X_31_5                        1.000000
X_32_12                       1.000000
X_33_14                       1.000000
X_34_7                        1.000000
X_35_14                       1.000000
X_36_25                       1.000000
X_37_23                       1.000000
X_38_14                       1.000000
X_39_23                       1.000000
X_40_19                       1.000000
X_41_30                       1.000000
X_42_9                        1.000000
X_43_1                        1.000000
X_44_6                        1.000000
X_45_26                       1.000000
X_46_30                       1.000000
X_47_3                        1.000000
X_48_12                       1.000000
X_49_8                        1.000000
X_50_8                        1.000000
X_51_29                       1.000000
X_52_17                       1.000000
X_53_5                        1.000000
X_54_4                        1.000000
X_55_17                       1.000000
X_56_10                       1.000000
X_57_24                       1.000000
X_58_25                       1.000000
X_59_28                       1.000000
X_60_3                        1.000000
X_61_28                       1.000000
X_62_30                       1.000000
X_63_13                       1.000000
X_64_19                       1.000000
X_65_27                       1.000000
X_66_7                        1.000000
X_67_3                        1.000000
X_68_26                       1.000000
X_69_27                       1.000000
X_70_23                       1.000000
X_71_5                        1.000000
X_72_20                       1.000000
X_73_17                       1.000000
X_74_11                       1.000000
X_75_22                       1.000000
X_76_21                       1.000000
X_77_19                       1.000000
X_78_29                       1.000000
X_79_1                        1.000000
X_80_29                       1.000000
X_81_2                        1.000000
X_82_10                       1.000000
X_83_8                        1.000000
X_84_2                        1.000000
X_85_12                       1.000000
X_86_20                       1.000000
X_87_28                       1.000000
X_88_13                       1.000000
X_89_8                        1.000000
X_90_27                       1.000000
X_91_9                        1.000000
X_92_15                       1.000000
X_93_13                       1.000000
X_94_17                       1.000000
X_95_22                       1.000000
X_96_24                       1.000000
X_97_9                        1.000000
X_98_18                       1.000000
X_99_17                       1.000000
X_100_16                      1.000000
X_101_17                      1.000000
X_102_16                      1.000000
X_103_14                      1.000000
X_104_18                      1.000000
X_105_23                      1.000000
X_106_14                      1.000000
X_107_26                      1.000000
X_108_28                      1.000000
X_109_30                      1.000000
X_110_18                      1.000000
X_111_19                      1.000000
X_112_22                      1.000000
X_113_21                      1.000000
X_114_20                      1.000000
X_115_12                      1.000000
X_116_6                       1.000000
X_117_11                      1.000000
X_118_11                      1.000000
X_119_14                      1.000000
X_120_25                      1.000000
X_121_11                      1.000000
X_122_29                      1.000000
X_123_25                      1.000000
X_124_28                      1.000000
X_125_9                       1.000000
X_126_1                       1.000000
X_127_16                      1.000000
X_128_15                      1.000000
X_129_15                      1.000000
X_130_13                      1.000000
X_131_28                      1.000000
X_132_2                       1.000000
X_133_24                      1.000000
X_134_25                      1.000000
X_135_22                      1.000000
X_136_24                      1.000000
X_137_1                       1.000000
X_138_16                      1.000000
X_139_23                      1.000000
X_140_28                      1.000000
X_141_15                      1.000000
X_142_4                       1.000000
X_143_10                      1.000000
X_144_8                       1.000000
X_145_8                       1.000000
X_146_27                      1.000000
X_147_10                      1.000000
X_148_15                      1.000000
X_149_7                       1.000000
X_150_24                      1.000000
X_151_20                      1.000000
X_152_5                       1.000000
X_153_8                       1.000000
X_154_18                      1.000000
X_155_30                      1.000000
X_156_11                      1.000000
X_157_22                      1.000000
X_158_12                      1.000000
X_159_23                      1.000000
X_160_3                       1.000000
X_161_23                      1.000000
X_162_27                      1.000000
X_163_22                      1.000000
X_164_30                      1.000000
X_165_27                      1.000000
X_166_15                      1.000000
X_167_24                      1.000000
X_168_8                       1.000000
X_169_24                      1.000000
X_170_19                      1.000000
X_171_20                      1.000000
X_172_17                      1.000000
X_173_30                      1.000000
X_174_26                      1.000000
X_175_13                      1.000000
X_176_16                      1.000000
X_177_29                      1.000000
X_178_5                       1.000000
X_179_23                      1.000000
X_180_4                       1.000000
X_181_28                      1.000000
X_182_7                       1.000000
X_183_28                      1.000000
X_184_28                      1.000000
X_185_24                      1.000000
X_186_30                      1.000000
X_187_16                      1.000000
X_188_1                       1.000000
X_189_1                       1.000000
X_190_25                      1.000000
X_191_20                      1.000000
X_192_14                      1.000000
X_193_22                      1.000000
X_194_24                      1.000000
X_195_20                      1.000000
X_196_8                       1.000000
X_197_20                      1.000000
X_198_12                      1.000000
X_199_3                       1.000000
X_200_10                      1.000000
X_201_19                      1.000000
X_202_14                      1.000000
X_203_1                       1.000000
X_204_18                      1.000000
X_205_8                       1.000000
X_206_25                      1.000000
X_207_8                       1.000000
X_208_22                      1.000000
X_209_27                      1.000000
X_210_4                       1.000000
X_211_27                      1.000000
X_212_25                      1.000000
X_213_30                      1.000000
X_214_29                      1.000000
X_215_2                       1.000000
X_216_9                       1.000000
X_217_15                      1.000000
X_218_4                       1.000000
X_219_19                      1.000000
X_220_10                      1.000000
X_221_25                      1.000000
X_222_27                      1.000000
X_223_13                      1.000000
X_224_1                       1.000000
X_225_22                      1.000000
X_226_1                       1.000000
X_227_27                      1.000000
X_228_9                       1.000000
X_229_19                      1.000000
X_230_2                       1.000000
X_231_16                      1.000000
X_232_23                      1.000000
X_233_3                       1.000000
X_234_17                      1.000000
X_235_13                      1.000000
X_236_18                      1.000000
X_237_13                      1.000000
X_238_22                      1.000000
X_239_15                      1.000000
X_240_16                      1.000000
X_241_11                      1.000000
X_242_18                      1.000000
X_243_13                      1.000000
X_244_23                      1.000000
X_245_15                      1.000000
X_246_29                      1.000000
X_247_23                      1.000000
X_248_9                       1.000000
X_249_9                       1.000000
X_250_14                      1.000000
X_251_20                      1.000000
X_252_11                      1.000000
X_253_8                       1.000000
X_254_24                      1.000000
X_255_6                       1.000000
X_256_30                      1.000000
X_257_4                       1.000000
X_258_18                      1.000000
X_259_25                      1.000000
X_260_19                      1.000000
X_261_20                      1.000000
X_262_16                      1.000000
X_263_11                      1.000000
X_264_7                       1.000000
X_265_18                      1.000000
X_266_16                      1.000000
X_267_22                      1.000000
X_268_17                      1.000000
X_269_28                      1.000000
X_270_8                       1.000000
X_271_22                      1.000000
X_272_16                      1.000000
X_273_6                       1.000000
X_274_4                       1.000000
X_275_2                       1.000000
X_276_25                      1.000000
X_277_12                      1.000000
X_278_14                      1.000000
X_279_12                      1.000000
X_280_25                      1.000000
X_281_1                       1.000000
X_282_2                       1.000000
X_283_5                       1.000000
X_284_26                      1.000000
X_285_11                      1.000000
X_286_14                      1.000000
X_287_12                      1.000000
X_288_28                      1.000000
X_289_20                      1.000000
X_290_8                       1.000000
X_291_29                      1.000000
X_292_18                      1.000000
X_293_5                       1.000000
X_294_6                       1.000000
X_295_28                      1.000000
X_296_30                      1.000000
X_297_29                      1.000000
X_298_15                      1.000000
X_299_19                      1.000000
X_300_10                      1.000000
X_301_18                      1.000000
X_302_27                      1.000000
X_303_13                      1.000000
X_304_30                      1.000000
X_305_4                       1.000000
X_306_25                      1.000000
X_307_2                       1.000000
X_308_18                      1.000000
X_309_6                       1.000000
X_310_8                       1.000000
X_311_10                      1.000000
X_312_29                      1.000000
X_313_26                      1.000000
X_314_26                      1.000000
X_315_24                      1.000000
X_316_23                      1.000000
X_317_10                      1.000000
X_318_19                      1.000000
X_319_23                      1.000000
X_320_18                      1.000000
X_321_24                      1.000000
X_322_22                      1.000000
X_323_26                      1.000000
X_324_16                      1.000000
X_325_20                      1.000000
X_326_13                      1.000000
X_327_15                      1.000000
X_328_13                      1.000000
X_329_6                       1.000000
X_330_9                       1.000000
X_331_11                      1.000000
X_332_12                      1.000000
X_333_25                      1.000000
X_334_19                      1.000000
X_335_29                      1.000000
X_336_17                      1.000000
X_337_26                      1.000000
X_338_15                      1.000000
X_339_25                      1.000000
X_340_10                      1.000000
X_341_24                      1.000000
X_342_1                       1.000000
X_343_11                      1.000000
X_344_1                       1.000000
X_345_9                       1.000000
X_346_30                      1.000000
X_347_2                       1.000000
X_348_29                      1.000000
X_349_30                      1.000000
X_350_20                      1.000000
X_351_17                      1.000000
X_352_7                       1.000000
X_353_9                       1.000000
X_354_26                      1.000000
X_355_9                       1.000000
X_356_6                       1.000000
X_357_14                      1.000000
X_358_11                      1.000000
X_359_9                       1.000000
X_360_30                      1.000000
X_361_27                      1.000000
X_362_7                       1.000000
X_363_20                      1.000000
X_364_18                      1.000000
X_365_18                      1.000000
X_366_5                       1.000000
X_367_30                      1.000000
X_368_21                      1.000000
X_369_12                      1.000000
X_370_21                      1.000000
X_371_17                      1.000000
X_372_12                      1.000000
X_373_25                      1.000000
X_374_1                       1.000000
X_375_11                      1.000000
X_376_8                       1.000000
X_377_18                      1.000000
X_378_30                      1.000000
X_379_20                      1.000000
X_380_29                      1.000000
X_381_24                      1.000000
X_382_17                      1.000000
X_383_5                       1.000000
X_384_14                      1.000000
X_385_2                       1.000000
X_386_7                       1.000000
X_387_21                      1.000000
X_388_4                       1.000000
X_389_8                       1.000000
X_390_15                      1.000000
X_391_5                       1.000000
X_392_5                       1.000000
X_393_14                      1.000000
X_394_2                       1.000000
X_395_15                      1.000000
X_396_16                      1.000000
X_397_13                      1.000000
X_398_17                      1.000000
X_399_21                      1.000000
X_400_11                      1.000000
X_401_3                       1.000000
X_402_22                      1.000000
X_403_13                      1.000000
X_404_26                      1.000000
X_405_4                       1.000000
X_406_27                      1.000000
X_407_25                      1.000000
X_408_23                      1.000000
X_409_18                      1.000000
X_410_24                      1.000000
X_411_11                      1.000000
X_412_2                       1.000000
X_413_4                       1.000000
X_414_27                      1.000000
X_415_26                      1.000000
X_416_10                      1.000000
X_417_19                      1.000000
X_418_25                      1.000000
X_419_21                      1.000000
X_420_17                      1.000000
X_421_17                      1.000000
X_422_26                      1.000000
X_423_7                       1.000000
X_424_27                      1.000000
X_425_24                      1.000000
X_426_10                      1.000000
X_427_29                      1.000000
X_428_19                      1.000000
X_429_10                      1.000000
X_430_5                       1.000000
X_431_8                       1.000000
X_432_1                       1.000000
X_433_7                       1.000000
X_434_25                      1.000000
X_435_5                       1.000000
X_436_8                       1.000000
X_437_7                       1.000000
X_438_20                      1.000000
X_439_14                      1.000000
X_440_12                      1.000000
X_441_26                      1.000000
X_442_23                      1.000000
X_443_25                      1.000000
X_444_6                       1.000000
X_445_30                      1.000000
X_446_18                      1.000000
X_447_17                      1.000000
X_448_6                       1.000000
X_449_22                      1.000000
X_450_22                      1.000000
X_451_21                      1.000000
X_452_28                      1.000000
X_453_10                      1.000000
X_454_30                      1.000000
X_455_11                      1.000000
X_456_9                       1.000000
X_457_26                      1.000000
X_458_17                      1.000000
X_459_3                       1.000000
X_460_30                      1.000000
X_461_23                      1.000000
X_462_10                      1.000000
X_463_8                       1.000000
X_464_3                       1.000000
X_465_2                       1.000000
X_466_1                       1.000000
X_467_14                      1.000000
X_468_7                       1.000000
X_469_9                       1.000000
X_470_5                       1.000000
X_471_10                      1.000000
X_472_14                      1.000000
X_473_4                       1.000000
X_474_20                      1.000000
X_475_30                      1.000000
X_476_19                      1.000000
X_477_25                      1.000000
X_478_25                      1.000000
X_479_9                       1.000000
X_480_8                       1.000000
X_481_21                      1.000000
X_482_25                      1.000000
X_483_4                       1.000000
X_484_19                      1.000000
X_485_6                       1.000000
X_486_29                      1.000000
X_487_19                      1.000000
X_488_21                      1.000000
X_489_3                       1.000000
X_490_19                      1.000000
X_491_25                      1.000000
X_492_7                       1.000000
X_493_16                      1.000000
X_494_10                      1.000000
X_495_10                      1.000000
X_496_29                      1.000000
X_497_26                      1.000000
X_498_1                       1.000000
X_499_25                      1.000000
X_500_21                      1.000000
All other variables in the range 1-15001 are 0.
